instances/knapsack/discrete/knapsack_50_1.lp
\ Model knapsack_50_1
\ LP format - for model browsing. Use MPS format to capture full model detail.
\ Signature: 0xe2d4f45d0ac270ee
Minimize
  - 51 x[0] - 20 x[1] - 9 x[2] - 13 x[3] - 63 x[4] - 42 x[5] - 99 x[6]
   - 5 x[7] - 44 x[8] - 88 x[9] - 24 x[10] - 76 x[11] - 60 x[12] - 7 x[13]
   - 44 x[14] - 25 x[15] - 3 x[16] - 55 x[17] - 20 x[18] - 51 x[19]
   - 15 x[20] - 20 x[21] - 97 x[22] - 69 x[23] - 86 x[24] - 72 x[25]
   - 13 x[26] - 57 x[27] - 59 x[28] - 98 x[29] - 74 x[30] - 69 x[31]
   - 25 x[32] - 80 x[33] - 85 x[34] - 34 x[35] - 14 x[36] - 92 x[37]
   - 72 x[38] - 97 x[39] - 41 x[40] - 15 x[41] - 71 x[42] - 40 x[43]
   - 48 x[44] - 48 x[45] - 86 x[46] - 30 x[47] - 62 x[48] - 7 x[49]
Subject To
 primal_upper: 9 x[0] + 17 x[1] + 55 x[2] + 84 x[3] + 49 x[4] + 79 x[5]
   + 38 x[6] + 85 x[7] + 26 x[8] + 3 x[9] + 33 x[10] + 60 x[11] + 57 x[12]
   + 57 x[13] + 98 x[14] + 70 x[15] + 34 x[16] + 37 x[17] + 54 x[18]
   + 63 x[19] + 38 x[20] + x[21] + 61 x[22] + 68 x[23] + 66 x[24]
   + 25 x[25] + 59 x[26] + 97 x[27] + 31 x[28] + 84 x[29] + 51 x[30]
   + 77 x[31] + 9 x[32] + 38 x[33] + 17 x[34] + 26 x[35] + 53 x[36]
   + 2 x[37] + 73 x[38] + 96 x[39] + 24 x[40] + 71 x[41] + 91 x[42]
   + 71 x[43] + 48 x[44] + 44 x[45] + 99 x[46] + 59 x[47] + 8 x[48]
   + 29 x[49] + 0.9 r[0] + 1.7 r[1] + 5.5 r[2] + 8.4 r[3] + 4.9 r[4]
   + 7.9 r[5] + 3.8 r[6] + 8.5 r[7] + 2.6 r[8] + 0.3 r[9] + 3.3 r[10]
   + 6 r[11] + 5.7 r[12] + 5.7 r[13] + 9.8 r[14] + 7 r[15] + 3.4 r[16]
   + 3.7 r[17] + 5.4 r[18] + 6.3 r[19] + 3.8 r[20] + 0.1 r[21] + 6.1 r[22]
   + 6.8 r[23] + 6.6 r[24] + 2.5 r[25] + 5.9 r[26] + 9.7 r[27] + 3.1 r[28]
   + 8.4 r[29] + 5.1 r[30] + 7.7 r[31] + 0.9 r[32] + 3.8 r[33] + 1.7 r[34]
   + 2.6 r[35] + 5.3 r[36] + 0.2 r[37] + 7.3 r[38] + 9.6 r[39] + 2.4 r[40]
   + 7.1 r[41] + 9.1 r[42] + 7.1 r[43] + 4.8 r[44] + 4.4 r[45] + 9.9 r[46]
   + 5.9 r[47] + 0.8 r[48] + 2.9 r[49] <= 240
 primal_lower: 4.135239734005363 x[0] + 0.7749417884270356 x[1]
   + 0.8833373271419555 x[2] + 1.628008345124483 x[3]
   + 2.775056305648926 x[4] + 2.57065667372276 x[5]
   + 0.837403392903575 x[6] + 3.544235840777462 x[7]
   + 0.6556449193484305 x[8] + 3.085705854486579 x[9]
   + 1.490633225828196 x[10] + 1.600705966840948 x[11]
   + 3.748716561278282 x[12] + 0.7670781915968422 x[13]
   + 2.496455496359594 x[14] + 0.9694126702507624 x[15]
   + 0.514377963833053 x[16] + 3.16270643017624 x[17]
   + 3.824534647783673 x[18] + 4.89145132186203 x[19]
   + 2.629480089352547 x[20] + 0.9681447625015416 x[21]
   + 4.957641675282396 x[22] + 4.261668987125148 x[23]
   + 0.9467807470911018 x[24] + 4.252248598238303 x[25]
   + 2.942925233494369 x[26] + 0.7961503569685709 x[27]
   + 1.161338323552496 x[28] + 2.95522009024088 x[29]
   + 2.826956607811571 x[30] + 3.068833386426002 x[31]
   + 1.239484013103109 x[32] + 4.813038270106865 x[33]
   + 0.161653963541626 x[34] + 1.986212004494154 x[35]
   + 1.146408198294926 x[36] + 1.798453855568406 x[37]
   + 4.46670558559271 x[38] + 3.890701364402318 x[39]
   + 0.6099363578192618 x[40] + 1.302395688357743 x[41]
   + 1.220284504185269 x[42] + 3.980694968561508 x[43]
   + 0.8743545205334696 x[44] + 1.598111245527786 x[45]
   + 0.3298346104359644 x[46] + 4.229994707079544 x[47]
   + 3.356961400270527 x[48] + 1.516553824746582 x[49] + 65 u[0] + 25 u[1]
   + 19 u[2] + 4 u[3] + 17 u[4] + 51 u[5] + 30 u[6] + 45 u[7] + 42 u[8]
   + 43 u[9] + 85 u[10] + 96 u[11] + 81 u[12] + 97 u[13] + 18 u[14]
   + 74 u[15] + 42 u[16] + 57 u[17] + 66 u[18] + 83 u[19] + 98 u[20]
   + 21 u[21] + u[22] + 72 u[23] + 82 u[24] + 9 u[25] + 71 u[26] + u[27]
   + 75 u[28] + 44 u[29] + 55 u[30] + 85 u[31] + 57 u[32] + 94 u[33]
   + 97 u[34] + 54 u[35] + 25 u[36] + 2 u[37] + u[38] + 44 u[39] + 4 u[40]
   + 71 u[41] + 3 u[42] + 55 u[43] + 72 u[44] + 64 u[45] + 55 u[46]
   + 91 u[47] + 100 u[48] + 61 u[49] <= 88892
 mccormick1[0]: - u[0] + r[0] <= 0
 mccormick1[1]: - u[1] + r[1] <= 0
 mccormick1[2]: - u[2] + r[2] <= 0
 mccormick1[3]: - u[3] + r[3] <= 0
 mccormick1[4]: - u[4] + r[4] <= 0
 mccormick1[5]: - u[5] + r[5] <= 0
 mccormick1[6]: - u[6] + r[6] <= 0
 mccormick1[7]: - u[7] + r[7] <= 0
 mccormick1[8]: - u[8] + r[8] <= 0
 mccormick1[9]: - u[9] + r[9] <= 0
 mccormick1[10]: - u[10] + r[10] <= 0
 mccormick1[11]: - u[11] + r[11] <= 0
 mccormick1[12]: - u[12] + r[12] <= 0
 mccormick1[13]: - u[13] + r[13] <= 0
 mccormick1[14]: - u[14] + r[14] <= 0
 mccormick1[15]: - u[15] + r[15] <= 0
 mccormick1[16]: - u[16] + r[16] <= 0
 mccormick1[17]: - u[17] + r[17] <= 0
 mccormick1[18]: - u[18] + r[18] <= 0
 mccormick1[19]: - u[19] + r[19] <= 0
 mccormick1[20]: - u[20] + r[20] <= 0
 mccormick1[21]: - u[21] + r[21] <= 0
 mccormick1[22]: - u[22] + r[22] <= 0
 mccormick1[23]: - u[23] + r[23] <= 0
 mccormick1[24]: - u[24] + r[24] <= 0
 mccormick1[25]: - u[25] + r[25] <= 0
 mccormick1[26]: - u[26] + r[26] <= 0
 mccormick1[27]: - u[27] + r[27] <= 0
 mccormick1[28]: - u[28] + r[28] <= 0
 mccormick1[29]: - u[29] + r[29] <= 0
 mccormick1[30]: - u[30] + r[30] <= 0
 mccormick1[31]: - u[31] + r[31] <= 0
 mccormick1[32]: - u[32] + r[32] <= 0
 mccormick1[33]: - u[33] + r[33] <= 0
 mccormick1[34]: - u[34] + r[34] <= 0
 mccormick1[35]: - u[35] + r[35] <= 0
 mccormick1[36]: - u[36] + r[36] <= 0
 mccormick1[37]: - u[37] + r[37] <= 0
 mccormick1[38]: - u[38] + r[38] <= 0
 mccormick1[39]: - u[39] + r[39] <= 0
 mccormick1[40]: - u[40] + r[40] <= 0
 mccormick1[41]: - u[41] + r[41] <= 0
 mccormick1[42]: - u[42] + r[42] <= 0
 mccormick1[43]: - u[43] + r[43] <= 0
 mccormick1[44]: - u[44] + r[44] <= 0
 mccormick1[45]: - u[45] + r[45] <= 0
 mccormick1[46]: - u[46] + r[46] <= 0
 mccormick1[47]: - u[47] + r[47] <= 0
 mccormick1[48]: - u[48] + r[48] <= 0
 mccormick1[49]: - u[49] + r[49] <= 0
 mccormick2[0]: - x[0] + r[0] <= 0
 mccormick2[1]: - x[1] + r[1] <= 0
 mccormick2[2]: - x[2] + r[2] <= 0
 mccormick2[3]: - x[3] + r[3] <= 0
 mccormick2[4]: - x[4] + r[4] <= 0
 mccormick2[5]: - x[5] + r[5] <= 0
 mccormick2[6]: - x[6] + r[6] <= 0
 mccormick2[7]: - x[7] + r[7] <= 0
 mccormick2[8]: - x[8] + r[8] <= 0
 mccormick2[9]: - x[9] + r[9] <= 0
 mccormick2[10]: - x[10] + r[10] <= 0
 mccormick2[11]: - x[11] + r[11] <= 0
 mccormick2[12]: - x[12] + r[12] <= 0
 mccormick2[13]: - x[13] + r[13] <= 0
 mccormick2[14]: - x[14] + r[14] <= 0
 mccormick2[15]: - x[15] + r[15] <= 0
 mccormick2[16]: - x[16] + r[16] <= 0
 mccormick2[17]: - x[17] + r[17] <= 0
 mccormick2[18]: - x[18] + r[18] <= 0
 mccormick2[19]: - x[19] + r[19] <= 0
 mccormick2[20]: - x[20] + r[20] <= 0
 mccormick2[21]: - x[21] + r[21] <= 0
 mccormick2[22]: - x[22] + r[22] <= 0
 mccormick2[23]: - x[23] + r[23] <= 0
 mccormick2[24]: - x[24] + r[24] <= 0
 mccormick2[25]: - x[25] + r[25] <= 0
 mccormick2[26]: - x[26] + r[26] <= 0
 mccormick2[27]: - x[27] + r[27] <= 0
 mccormick2[28]: - x[28] + r[28] <= 0
 mccormick2[29]: - x[29] + r[29] <= 0
 mccormick2[30]: - x[30] + r[30] <= 0
 mccormick2[31]: - x[31] + r[31] <= 0
 mccormick2[32]: - x[32] + r[32] <= 0
 mccormick2[33]: - x[33] + r[33] <= 0
 mccormick2[34]: - x[34] + r[34] <= 0
 mccormick2[35]: - x[35] + r[35] <= 0
 mccormick2[36]: - x[36] + r[36] <= 0
 mccormick2[37]: - x[37] + r[37] <= 0
 mccormick2[38]: - x[38] + r[38] <= 0
 mccormick2[39]: - x[39] + r[39] <= 0
 mccormick2[40]: - x[40] + r[40] <= 0
 mccormick2[41]: - x[41] + r[41] <= 0
 mccormick2[42]: - x[42] + r[42] <= 0
 mccormick2[43]: - x[43] + r[43] <= 0
 mccormick2[44]: - x[44] + r[44] <= 0
 mccormick2[45]: - x[45] + r[45] <= 0
 mccormick2[46]: - x[46] + r[46] <= 0
 mccormick2[47]: - x[47] + r[47] <= 0
 mccormick2[48]: - x[48] + r[48] <= 0
 mccormick2[49]: - x[49] + r[49] <= 0
 mccormick3[0]: x[0] + u[0] - r[0] <= 1
 mccormick3[1]: x[1] + u[1] - r[1] <= 1
 mccormick3[2]: x[2] + u[2] - r[2] <= 1
 mccormick3[3]: x[3] + u[3] - r[3] <= 1
 mccormick3[4]: x[4] + u[4] - r[4] <= 1
 mccormick3[5]: x[5] + u[5] - r[5] <= 1
 mccormick3[6]: x[6] + u[6] - r[6] <= 1
 mccormick3[7]: x[7] + u[7] - r[7] <= 1
 mccormick3[8]: x[8] + u[8] - r[8] <= 1
 mccormick3[9]: x[9] + u[9] - r[9] <= 1
 mccormick3[10]: x[10] + u[10] - r[10] <= 1
 mccormick3[11]: x[11] + u[11] - r[11] <= 1
 mccormick3[12]: x[12] + u[12] - r[12] <= 1
 mccormick3[13]: x[13] + u[13] - r[13] <= 1
 mccormick3[14]: x[14] + u[14] - r[14] <= 1
 mccormick3[15]: x[15] + u[15] - r[15] <= 1
 mccormick3[16]: x[16] + u[16] - r[16] <= 1
 mccormick3[17]: x[17] + u[17] - r[17] <= 1
 mccormick3[18]: x[18] + u[18] - r[18] <= 1
 mccormick3[19]: x[19] + u[19] - r[19] <= 1
 mccormick3[20]: x[20] + u[20] - r[20] <= 1
 mccormick3[21]: x[21] + u[21] - r[21] <= 1
 mccormick3[22]: x[22] + u[22] - r[22] <= 1
 mccormick3[23]: x[23] + u[23] - r[23] <= 1
 mccormick3[24]: x[24] + u[24] - r[24] <= 1
 mccormick3[25]: x[25] + u[25] - r[25] <= 1
 mccormick3[26]: x[26] + u[26] - r[26] <= 1
 mccormick3[27]: x[27] + u[27] - r[27] <= 1
 mccormick3[28]: x[28] + u[28] - r[28] <= 1
 mccormick3[29]: x[29] + u[29] - r[29] <= 1
 mccormick3[30]: x[30] + u[30] - r[30] <= 1
 mccormick3[31]: x[31] + u[31] - r[31] <= 1
 mccormick3[32]: x[32] + u[32] - r[32] <= 1
 mccormick3[33]: x[33] + u[33] - r[33] <= 1
 mccormick3[34]: x[34] + u[34] - r[34] <= 1
 mccormick3[35]: x[35] + u[35] - r[35] <= 1
 mccormick3[36]: x[36] + u[36] - r[36] <= 1
 mccormick3[37]: x[37] + u[37] - r[37] <= 1
 mccormick3[38]: x[38] + u[38] - r[38] <= 1
 mccormick3[39]: x[39] + u[39] - r[39] <= 1
 mccormick3[40]: x[40] + u[40] - r[40] <= 1
 mccormick3[41]: x[41] + u[41] - r[41] <= 1
 mccormick3[42]: x[42] + u[42] - r[42] <= 1
 mccormick3[43]: x[43] + u[43] - r[43] <= 1
 mccormick3[44]: x[44] + u[44] - r[44] <= 1
 mccormick3[45]: x[45] + u[45] - r[45] <= 1
 mccormick3[46]: x[46] + u[46] - r[46] <= 1
 mccormick3[47]: x[47] + u[47] - r[47] <= 1
 mccormick3[48]: x[48] + u[48] - r[48] <= 1
 mccormick3[49]: x[49] + u[49] - r[49] <= 1
Bounds
Binaries
 x[0] x[1] x[2] x[3] x[4] x[5] x[6] x[7] x[8] x[9] x[10] x[11] x[12] x[13]
 x[14] x[15] x[16] x[17] x[18] x[19] x[20] x[21] x[22] x[23] x[24] x[25]
 x[26] x[27] x[28] x[29] x[30] x[31] x[32] x[33] x[34] x[35] x[36] x[37]
 x[38] x[39] x[40] x[41] x[42] x[43] x[44] x[45] x[46] x[47] x[48] x[49]
 u[0] u[1] u[2] u[3] u[4] u[5] u[6] u[7] u[8] u[9] u[10] u[11] u[12] u[13]
 u[14] u[15] u[16] u[17] u[18] u[19] u[20] u[21] u[22] u[23] u[24] u[25]
 u[26] u[27] u[28] u[29] u[30] u[31] u[32] u[33] u[34] u[35] u[36] u[37]
 u[38] u[39] u[40] u[41] u[42] u[43] u[44] u[45] u[46] u[47] u[48] u[49]
 r[0] r[1] r[2] r[3] r[4] r[5] r[6] r[7] r[8] r[9] r[10] r[11] r[12] r[13]
 r[14] r[15] r[16] r[17] r[18] r[19] r[20] r[21] r[22] r[23] r[24] r[25]
 r[26] r[27] r[28] r[29] r[30] r[31] r[32] r[33] r[34] r[35] r[36] r[37]
 r[38] r[39] r[40] r[41] r[42] r[43] r[44] r[45] r[46] r[47] r[48] r[49]
End
