instances/knapsack/discrete_knapsack_uncertainty/knapsack_50_1.kp
77116
50
240

9 0.9 51
17 1.7 20
55 5.5 9
84 8.4 13
49 4.9 63
79 7.9 42
38 3.8 99
85 8.5 5
26 2.6 44
3 0.3 88
33 3.3 24
60 6.0 76
57 5.7 60
57 5.7 7
98 9.8 44
70 7.0 25
34 3.4 3
37 3.7 55
54 5.4 20
63 6.3 51
38 3.8 15
1 0.1 20
61 6.1 97
68 6.8 69
66 6.6 86
25 2.5 72
59 5.9 13
97 9.7 57
31 3.1 59
84 8.4 98
51 5.1 74
77 7.7 69
9 0.9 25
38 3.8 80
17 1.7 85
26 2.6 34
53 5.3 14
2 0.2 92
73 7.3 72
96 9.6 97
24 2.4 41
71 7.1 15
91 9.1 71
71 7.1 40
48 4.8 48
44 4.4 48
99 9.9 86
59 5.9 30
8 0.8 62
29 2.9 7

88892
248

[4.1352397340053635 0.7749417884270356 0.8833373271419555 1.6280083451244833 2.7750563056489264 2.5706566737227603 0.837403392903575 3.544235840777462 0.6556449193484305 3.0857058544865787 1.4906332258281956 1.600705966840948 3.7487165612782825 0.7670781915968422 2.496455496359594 0.9694126702507624 0.514377963833053 3.16270643017624 3.824534647783673 4.89145132186203 2.629480089352547 0.9681447625015416 4.957641675282396 4.261668987125148 0.9467807470911018 4.252248598238303 2.9429252334943685 0.796150356968571 1.161338323552496 2.95522009024088 2.826956607811571 3.068833386426002 1.2394840131031093 4.8130382701068655 0.16165396354162595 1.9862120044941542 1.146408198294926 1.798453855568406 4.46670558559271 3.890701364402318 0.6099363578192618 1.3023956883577428 1.2202845041852688 3.980694968561508 0.8743545205334696 1.598111245527786 0.3298346104359644 4.229994707079544 3.3569614002705266 1.5165538247465815]

[65 25 19 4 17 51 30 45 42 43 85 96 81 97 18 74 42 57 66 83 98 21 1 72 82 9 71 1 75 44 55 85 57 94 97 54 25 2 1 44 4 71 3 55 72 64 55 91 100 61]
